  Job Started  at 12:53.52  3rd July       2025

  Number of CPUs =     1

  Host name      = login01

  Total number of configurations input =      1

*  Input for Configuration =   1 : silicate                                    *

  Formula = Si12O24

  Number of irreducible atoms/shells =      60

  Total number atoms/shells =      60

  Dimensionality = 3               :  Bulk

  Cartesian lattice vectors (Angstroms) :

        7.546602    0.000000    0.000000
        0.000000    7.546602    0.000000
        0.000000    0.000000    8.699541

  Cell parameters (Angstroms/Degrees):

  a =       7.5466    alpha =  90.0000
  b =       7.5466    beta  =  90.0000
  c =       8.6995    gamma =  90.0000

  Initial cell volume =         495.449375 Angs**3

  Temperature of configuration =  0.000     K

  Pressure of configuration =         0.000 GPa

  Fractional coordinates of asymmetric unit :

   No.  Atomic       x           y          z         Charge      Occupancy
        Label      (Frac)      (Frac)     (Frac)        (e)         (Frac)
      1 Si    c    0.324857    0.119135    0.250812     4.00000    1.000000
      2 Si    c    0.380865 *  0.824857 *  0.000812 *   4.00000    1.000000
      3 Si    c    0.675143 *  0.880865 *  0.750812 *   4.00000    1.000000
      4 Si    c    0.619135 *  0.175143 *  0.500812 *   4.00000    1.000000
      5 Si    c    0.119135 *  0.324857 *  0.749188 *   4.00000    1.000000
      6 Si    c    0.824857 *  0.380865 *  0.999188 *   4.00000    1.000000
      7 Si    c    0.880865 *  0.675143 *  0.249188 *   4.00000    1.000000
      8 Si    c    0.175143 *  0.619135 *  0.499188 *   4.00000    1.000000
      9 Si    c    0.414191 *  0.414191 *  0.000000 *   4.00000    1.000000
     10 Si    c    0.085809 *  0.914191 *  0.750000 *   4.00000    1.000000
     11 Si    c    0.585809 *  0.585809 *  0.500000 *   4.00000    1.000000
     12 Si    c    0.914191 *  0.085809 *  0.250000 *   4.00000    1.000000
     13 O     c    0.440565 *  0.124512 *  0.407067 *   0.86902    1.000000
     14 O     c    0.375488 *  0.940565 *  0.157067 *   0.86902    1.000000
     15 O     c    0.559435 *  0.875488 *  0.907067 *   0.86902    1.000000
     16 O     c    0.624512 *  0.059435 *  0.657067 *   0.86902    1.000000
     17 O     c    0.124512 *  0.440565 *  0.592933 *   0.86902    1.000000
     18 O     c    0.940565 *  0.375488 *  0.842933 *   0.86902    1.000000
     19 O     c    0.875488 *  0.559435 *  0.092933 *   0.86902    1.000000
     20 O     c    0.059435 *  0.624512 *  0.342933 *   0.86902    1.000000
     21 O     c    0.118269 *  0.117599 *  0.300247 *   0.86902    1.000000
     22 O     c    0.382401 *  0.618269 *  0.050247 *   0.86902    1.000000
     23 O     c    0.881731 *  0.882401 *  0.800247 *   0.86902    1.000000
     24 O     c    0.617599 *  0.381731 *  0.550247 *   0.86902    1.000000
     25 O     c    0.117599 *  0.118269 *  0.699753 *   0.86902    1.000000
     26 O     c    0.618269 *  0.382401 *  0.949753 *   0.86902    1.000000
     27 O     c    0.882401 *  0.881731 *  0.199753 *   0.86902    1.000000
     28 O     c    0.381731 *  0.617599 *  0.449753 *   0.86902    1.000000
     29 O     c    0.364484 *  0.293592 *  0.147658 *   0.86902    1.000000
     30 O     c    0.206408 *  0.864484 *  0.897658 *   0.86902    1.000000
     31 O     c    0.635516 *  0.706408 *  0.647658 *   0.86902    1.000000
     32 O     c    0.793592 *  0.135516 *  0.397658 *   0.86902    1.000000
     33 O     c    0.293592 *  0.364484 *  0.852342 *   0.86902    1.000000
     34 O     c    0.864484 *  0.206408 *  0.102342 *   0.86902    1.000000
     35 O     c    0.706408 *  0.635516 *  0.352342 *   0.86902    1.000000
     36 O     c    0.135516 *  0.793592 *  0.602342 *   0.86902    1.000000
     37 O     s    0.440565 *  0.124512 *  0.407067 *  -2.86902    1.000000
     38 O     s    0.375488 *  0.940565 *  0.157067 *  -2.86902    1.000000
     39 O     s    0.559435 *  0.875488 *  0.907067 *  -2.86902    1.000000
     40 O     s    0.624512 *  0.059435 *  0.657067 *  -2.86902    1.000000
     41 O     s    0.124512 *  0.440565 *  0.592933 *  -2.86902    1.000000
     42 O     s    0.940565 *  0.375488 *  0.842933 *  -2.86902    1.000000
     43 O     s    0.875488 *  0.559435 *  0.092933 *  -2.86902    1.000000
     44 O     s    0.059435 *  0.624512 *  0.342933 *  -2.86902    1.000000
     45 O     s    0.118269 *  0.117599 *  0.300247 *  -2.86902    1.000000
     46 O     s    0.382401 *  0.618269 *  0.050247 *  -2.86902    1.000000
     47 O     s    0.881731 *  0.882401 *  0.800247 *  -2.86902    1.000000
     48 O     s    0.617599 *  0.381731 *  0.550247 *  -2.86902    1.000000
     49 O     s    0.117599 *  0.118269 *  0.699753 *  -2.86902    1.000000
     50 O     s    0.618269 *  0.382401 *  0.949753 *  -2.86902    1.000000
     51 O     s    0.882401 *  0.881731 *  0.199753 *  -2.86902    1.000000
     52 O     s    0.381731 *  0.617599 *  0.449753 *  -2.86902    1.000000
     53 O     s    0.364484 *  0.293592 *  0.147658 *  -2.86902    1.000000
     54 O     s    0.206408 *  0.864484 *  0.897658 *  -2.86902    1.000000
     55 O     s    0.635516 *  0.706408 *  0.647658 *  -2.86902    1.000000
     56 O     s    0.793592 *  0.135516 *  0.397658 *  -2.86902    1.000000
     57 O     s    0.293592 *  0.364484 *  0.852342 *  -2.86902    1.000000
     58 O     s    0.864484 *  0.206408 *  0.102342 *  -2.86902    1.000000
     59 O     s    0.706408 *  0.635516 *  0.352342 *  -2.86902    1.000000
     60 O     s    0.135516 *  0.793592 *  0.602342 *  -2.86902    1.000000

  Distance calculation :

  Cutoff for distances  =      2.000000 Angstroms

  Asymmetric unit site  Full lattice sites    No.  Distance      No.  Distance
      No.   At.No.            At.No.                (Angs)             (Angs)
       1   Si    core        O     core         1    1.6162        1    1.6173
                                                1    1.6208        1    1.6211
                             O     shell        1    1.6162        1    1.6173
                                                1    1.6208        1    1.6211
       2   Si    core        O     core         1    1.6162        1    1.6173
                                                1    1.6208        1    1.6211
                             O     shell        1    1.6162        1    1.6173
                                                1    1.6208        1    1.6211
       3   Si    core        O     core         1    1.6162        1    1.6173
                                                1    1.6208        1    1.6211
                             O     shell        1    1.6162        1    1.6173
                                                1    1.6208        1    1.6211
       4   Si    core        O     core         1    1.6162        1    1.6173
                                                1    1.6208        1    1.6211
                             O     shell        1    1.6162        1    1.6173
                                                1    1.6208        1    1.6211
       5   Si    core        O     core         1    1.6162        1    1.6173
                                                1    1.6208        1    1.6211
                             O     shell        1    1.6162        1    1.6173
                                                1    1.6208        1    1.6211
       6   Si    core        O     core         1    1.6162        1    1.6173
                                                1    1.6208        1    1.6211
                             O     shell        1    1.6162        1    1.6173
                                                1    1.6208        1    1.6211
       7   Si    core        O     core         1    1.6162        1    1.6173
                                                1    1.6208        1    1.6211
                             O     shell        1    1.6162        1    1.6173
                                                1    1.6208        1    1.6211
       8   Si    core        O     core         1    1.6162        1    1.6173
                                                1    1.6208        1    1.6211
                             O     shell        1    1.6162        1    1.6173
                                                1    1.6208        1    1.6211
       9   Si    core        O     core         2    1.6184        2    1.6188
                             O     shell        2    1.6184        2    1.6188
      10   Si    core        O     core         2    1.6184        2    1.6188
                             O     shell        2    1.6184        2    1.6188
      11   Si    core        O     core         2    1.6184        2    1.6188
                             O     shell        2    1.6184        2    1.6188
      12   Si    core        O     core         2    1.6184        2    1.6188
                             O     shell        2    1.6184        2    1.6188
      13   O     core        Si    core         1    1.6162        1    1.6208
      14   O     core        Si    core         1    1.6162        1    1.6208
      15   O     core        Si    core         1    1.6162        1    1.6208
      16   O     core        Si    core         1    1.6162        1    1.6208
      17   O     core        Si    core         1    1.6162        1    1.6208
      18   O     core        Si    core         1    1.6162        1    1.6208
      19   O     core        Si    core         1    1.6162        1    1.6208
      20   O     core        Si    core         1    1.6162        1    1.6208
      21   O     core        Si    core         1    1.6173        1    1.6188
      22   O     core        Si    core         1    1.6173        1    1.6188
      23   O     core        Si    core         1    1.6173        1    1.6188
      24   O     core        Si    core         1    1.6173        1    1.6188
      25   O     core        Si    core         1    1.6173        1    1.6188
      26   O     core        Si    core         1    1.6173        1    1.6188
      27   O     core        Si    core         1    1.6173        1    1.6188
      28   O     core        Si    core         1    1.6173        1    1.6188
      29   O     core        Si    core         1    1.6184        1    1.6211
      30   O     core        Si    core         1    1.6184        1    1.6211
      31   O     core        Si    core         1    1.6184        1    1.6211
      32   O     core        Si    core         1    1.6184        1    1.6211
      33   O     core        Si    core         1    1.6184        1    1.6211
      34   O     core        Si    core         1    1.6184        1    1.6211
      35   O     core        Si    core         1    1.6184        1    1.6211
      36   O     core        Si    core         1    1.6184        1    1.6211
      37   O     shell       Si    core         1    1.6162        1    1.6208
      38   O     shell       Si    core         1    1.6162        1    1.6208
      39   O     shell       Si    core         1    1.6162        1    1.6208
[...]
      56   O     shell       O     core         1    0.0650
                             Si    core         1    1.5788        1    1.5910
      57   O     shell       O     core         1    0.0651
                             Si    core         1    1.5788        1    1.5910
      58   O     shell       O     core         1    0.0695
                             Si    core         1    1.5796        1    1.5897
      59   O     shell       O     core         1    0.0640
                             Si    core         1    1.5793        1    1.5915
      60   O     shell       O     core         1    0.0694
                             Si    core         1    1.5794        1    1.5900

  Born effective charge tensors :

  Atom             x           y             z
    1 Si    x       3.4814      0.0585      0.1007
            y       0.1030      3.3807      0.0379
            z      -0.0522      0.1134      3.3570
    2 Si    x       3.3843     -0.0618     -0.0195
            y      -0.0979      3.4737      0.1024
            z      -0.1197     -0.0635      3.3693
    3 Si    x       3.4813      0.0594     -0.1007
            y       0.1021      3.3821     -0.0404
            z       0.0546     -0.1106      3.3552
    4 Si    x       3.3850     -0.0641      0.0206
            y      -0.0966      3.4758     -0.1013
            z       0.1180      0.0623      3.3715
    5 Si    x       3.3843      0.0621     -0.0212
            y       0.0971      3.4749     -0.1017
            z      -0.1173      0.0633      3.3700
    6 Si    x       3.4806     -0.0600     -0.0982
            y      -0.1021      3.3822      0.0384
            z       0.0519      0.1108      3.3576
    7 Si    x       3.3848      0.0610      0.0175
            y       0.0979      3.4747      0.1004
            z       0.1191     -0.0626      3.3725
    8 Si    x       3.4809     -0.0607      0.1011
            y      -0.1022      3.3822     -0.0384
            z      -0.0538     -0.1114      3.3562
    9 Si    x       3.4754      0.0288      0.0412
            y       0.0280      3.4779     -0.0620
            z       0.1766     -0.1645      3.1507
   10 Si    x       3.4773     -0.0290      0.0417
            y      -0.0292      3.4777      0.0635
            z       0.1770      0.1644      3.1511
   11 Si    x       3.4772      0.0304     -0.0415
            y       0.0280      3.4768      0.0644
            z      -0.1788      0.1634      3.1514
   12 Si    x       3.4761     -0.0262     -0.0429
            y      -0.0296      3.4779     -0.0633
            z      -0.1766     -0.1655      3.1515
   13 O     x      -1.9685     -0.1626     -0.7073
            y      -0.1448     -1.2455     -0.1053
            z      -0.7006     -0.1465     -1.9061
   14 O     x      -1.2358      0.1360      0.1111
            y       0.1520     -1.9667     -0.7144
            z       0.1572     -0.6981     -1.9204
   15 O     x      -1.9676     -0.1644      0.7047
            y      -0.1454     -1.2468      0.1048
            z       0.6983      0.1457     -1.9026
   16 O     x      -1.2360      0.1365     -0.1110
            y       0.1526     -1.9662      0.7171
            z      -0.1567      0.6994     -1.9233
   17 O     x      -1.2362     -0.1362      0.1111
            y      -0.1524     -1.9659      0.7155
            z       0.1563      0.6980     -1.9217
   18 O     x      -1.9681      0.1642      0.7065
            y       0.1454     -1.2461     -0.1056
            z       0.7000     -0.1465     -1.9034
   19 O     x      -1.2356     -0.1360     -0.1121
            y      -0.1521     -1.9664     -0.7165
            z      -0.1577     -0.6992     -1.9228
   20 O     x      -1.9681      0.1648     -0.7048
            y       0.1456     -1.2464      0.1057
            z      -0.6985      0.1467     -1.9033
   21 O     x      -2.6606     -0.1098     -0.0194
            y      -0.1226     -1.2256     -0.0061
            z       0.1527     -0.0065     -1.2143
   22 O     x      -1.2240      0.1413     -0.0018
            y       0.1411     -2.6693     -0.0130
            z      -0.0072      0.1536     -1.2109
   23 O     x      -2.6616     -0.1085      0.0221
            y      -0.1223     -1.2253      0.0059
            z      -0.1513      0.0055     -1.2139
   24 O     x      -1.2242      0.1401      0.0019
            y       0.1391     -2.6701      0.0094
            z       0.0076     -0.1555     -1.2113
   25 O     x      -1.2242     -0.1410     -0.0021
            y      -0.1401     -2.6704      0.0115
            z      -0.0079     -0.1540     -1.2108
   26 O     x      -2.6594      0.1095      0.0194
            y       0.1225     -1.2254     -0.0054
            z      -0.1530     -0.0053     -1.2148
   27 O     x      -1.2238     -0.1403      0.0030
            y      -0.1395     -2.6705     -0.0105
            z       0.0077      0.1549     -1.2116
   28 O     x      -2.6610      0.1091     -0.0231
            y       0.1224     -1.2250      0.0054
            z       0.1507      0.0057     -1.2140
   29 O     x      -1.2859     -0.2440      0.1906
            y      -0.2532     -1.9424      0.7153
            z       0.1779      0.6279     -1.8196
   30 O     x      -1.9672      0.2400     -0.7226
            y       0.2440     -1.2822      0.1856
            z      -0.6405      0.1753     -1.8073
   31 O     x      -1.2859     -0.2440     -0.1892
            y      -0.2524     -1.9445     -0.7149
            z      -0.1764     -0.6272     -1.8199
   32 O     x      -1.9674      0.2396      0.7220
            y       0.2439     -1.2820     -0.1854
            z       0.6403     -0.1746     -1.8068
   33 O     x      -1.9674     -0.2403     -0.7213
            y      -0.2439     -1.2822     -0.1854
            z      -0.6396     -0.1753     -1.8059
   34 O     x      -1.2861      0.2436     -0.1909
            y       0.2525     -1.9443      0.7161
            z      -0.1777      0.6285     -1.8207
   35 O     x      -1.9679     -0.2404      0.7242
            y      -0.2442     -1.2825      0.1866
            z       0.6419      0.1762     -1.8083
   36 O     x      -1.2862      0.2444      0.1902
            y       0.2534     -1.9446     -0.7163
            z       0.1778     -0.6283     -1.8204

  Elastic Constant Matrix: (Units=GPa)

  Indices      1         2         3         4         5         6
       1    -71.8284  477.5013   12.1159   -2.5538    0.2082    0.0492
       2    477.5013 -457.0998   -3.1740    3.6769    0.0530   -0.1645
       3     12.1159   -3.1740   -5.5731    0.1918    0.1907    0.0025
       4     -2.5538    3.6769    0.1918   16.2300   -0.0318    0.0436
       5      0.2082    0.0530    0.1907   -0.0318   12.8755    0.0609
       6      0.0492   -0.1645    0.0025    0.0436    0.0609   34.3745

  Elastic Constant Tensor Eigenvalues: (Units=GPa)

     1 =  -779.4979     2 =    -5.7282     3 =    12.8767
     4 =    16.2563     5 =    34.3748     6 =   250.6970
  No. of non-positive eigenvalues = 2 => system is elastically unstable

  Elastic Compliance Matrix: (Units=1/GPa)

  Indices      1         2         3         4         5         6
       1    0.002269  0.002343  0.003587 -0.000217 -0.000100  0.000008
       2    0.002343  0.000228  0.004970  0.000258 -0.000112 -0.000003
       3    0.003587  0.004970 -0.174329  0.001504  0.002508  0.000025
       4   -0.000217  0.000258  0.001504  0.061504  0.000133 -0.000077
       5   -0.000100 -0.000112  0.002508  0.000133  0.077633 -0.000138
       6    0.000008 -0.000003  0.000025 -0.000077 -0.000138  0.029092

  Mechanical properties :

  Convention :                    Reuss         Voigt         Hill
  Bulk  Modulus (GPa)     =      -6.66522      48.70944      21.02211
  Shear Modulus (GPa)     =     -66.29945     -55.36694     -60.83320
  Velocity S-wave (km/s)  =      -5.09775      -4.65853      -4.88308
  Velocity P-wave (km/s)  =       6.10425       3.13743       4.85311
  Compressibility (1/GPa) =   -0.15003259
  Stress axis :                     x             y             z
  Youngs Moduli (GPa)     =     440.76274    4389.17957      -5.73627
  Poissons Ratio (x)      =                   -10.28557       0.02058
  Poissons Ratio (y)      =      -1.03288                     0.02851
  Poissons Ratio (z)      =      -1.58096     -21.81361

  Piezoelectric Strain Matrix: (Units=C/m**2)

  Indices      1         2         3         4         5         6
       x    -0.84600   1.23795   0.09375   0.39015  -0.05911   0.00297
       y     0.10091  -0.03706  -0.09396  -0.02763   1.84452  -0.01487
       z    -0.09622   0.13485   0.00674  -0.01215   0.00726  -0.10923

  Piezoelectric Stress Matrix: (Units=10**-11 C/N)

  Indices      1         2         3         4         5         6
       x     0.12393  -0.11272  -1.27873   2.46317  -0.43560   0.00567
       y    -0.03736  -0.04522   2.11410  -0.16264  14.29520  -0.06868
       z     0.01229  -0.01649  -0.08525  -0.06720   0.05886  -0.31787

  Static dielectric constant tensor :

              x         y         z
       x     5.60918  -0.01615   0.00308
       y    -0.01615   6.23378   0.00133
       z     0.00308   0.00133   4.39112

  High frequency dielectric constant tensor :

              x         y         z
       x     2.04895  -0.00002  -0.00002
       y    -0.00002   2.04866  -0.00001
       z    -0.00002  -0.00001   2.01596

  Static refractive indices :

    1 =    2.09550      2 =    2.36828      3 =    2.49684

  High frequency refractive indices :

    1 =    1.41985      2 =    1.43131      3 =    1.43142

  Phonon Calculation :

  Number of k points for this configuration =        1

  K point      1 =   0.000000  0.000000  0.000000  Weight =    1.000

  Frequencies (cm-1) [NB: Negative implies an imaginary mode]:

  -24.93   -0.00   -0.00    0.00   12.77   17.68   25.66   32.37   55.23
   59.36  104.68  114.69  115.81  116.81  121.04  141.48  153.96  169.96
  172.07  176.87  187.36  195.43  197.58  199.36  209.37  216.85  247.92
  249.12  271.64  275.09  275.62  279.37  280.45  296.54  298.32  299.91
  301.61  328.28  337.88  338.04  340.87  344.60  344.74  348.48  358.04
  364.36  365.00  366.86  369.40  375.59  375.59  390.95  394.97  398.64
  399.05  401.60  404.62  417.48  420.42  439.62  453.02  505.47  508.71
  520.84  603.32  632.97  633.07  685.82  686.59  688.26  690.18  699.99
  797.64  803.70  808.08  808.29  811.06  829.18  837.59  839.92  842.30
  853.43  854.48  856.12  918.06  919.41  919.74  920.20  920.51  921.30
  923.30  923.82  923.91  925.50  929.48  931.51  932.39 1045.67 1045.99
 1048.08 1048.91 1052.44 1053.56 1056.67 1059.19 1091.54 1099.91 1100.37

  Phonon properties (per mole of unit cells): Temperature =      0.000 K
  Zero point energy            =        3.438013 eV

  Phonon density of states :

 Frequency (cm-1) Density of States
    0.00000 |************                                                  0.019
   17.19325 |******************                                            0.029
   34.38650 |                                                              0.000
   51.57975 |************                                                  0.019
   68.77299 |                                                              0.000
   85.96624 |                                                              0.000
  103.15949 |************************                                      0.038
  120.35274 |******                                                        0.010
  137.54599 |************                                                  0.019
  154.73924 |******                                                        0.010
  171.93249 |******************                                            0.029
  189.12573 |******************                                            0.029
  206.31898 |************                                                  0.019
  223.51223 |                                                              0.000
  240.70548 |************                                                  0.019
  257.89873 |******                                                        0.010
  275.09198 |************************                                      0.038
  292.28523 |************************                                      0.038
  309.47847 |                                                              0.000
  326.67172 |************************                                      0.038
  343.86497 |************************                                      0.038
  361.05822 |************************************                          0.057
  378.25147 |************                                                  0.019
  395.44472 |************************                                      0.038
  412.63797 |************                                                  0.019
  429.83121 |******                                                        0.010
  447.02446 |******                                                        0.010
  464.21771 |                                                              0.000
  481.41096 |                                                              0.000
  498.60421 |************                                                  0.019
  515.79746 |******                                                        0.010
  532.99071 |                                                              0.000
  550.18396 |                                                              0.000
  567.37720 |                                                              0.000
  584.57045 |                                                              0.000
  601.76370 |******                                                        0.010
  618.95695 |************                                                  0.019
  636.15020 |                                                              0.000
  653.34345 |                                                              0.000
  670.53670 |************                                                  0.019
  687.72994 |******************                                            0.029
  704.92319 |                                                              0.000
  722.11644 |                                                              0.000
  739.30969 |                                                              0.000
  756.50294 |                                                              0.000
  773.69619 |                                                              0.000
  790.88944 |******************                                            0.029
  808.08268 |************                                                  0.019
  825.27593 |************************                                      0.038
  842.46918 |******************                                            0.029
  859.66243 |                                                              0.000
  876.85568 |                                                              0.000
  894.04893 |                                                              0.000
  911.24218 |************************************************************  0.095
  928.43542 |******************                                            0.029
  945.62867 |                                                              0.000
  962.82192 |                                                              0.000
  980.01517 |                                                              0.000
  997.20842 |                                                              0.000
 1014.40167 |                                                              0.000
 1031.59492 |******************                                            0.029
 1048.78816 |******************************                                0.048
 1065.98141 |                                                              0.000
 1083.17466 |******************                                            0.029

  Time to end of optimisation =       5.4680 seconds

  Timing analysis for GULP :

  Task / Subroutine                                          Time (Seconds)
  Calculation of reciprocal space energy and derivatives          0.2194
  Calculation of real space energy and derivatives                3.5170
  Calculation of three-body energy and derivatives                0.2344
  Calculation of phonons                                          0.0965
  Calculation and manipulation of Hessian matrix                  0.0015
  Calculation of matrix inversion                                 0.5675

  CIF file written as silica.opt.cif

  Job Finished at 12:53.57  3rd July       2025